feasible solution found by trivial heuristic after 0.0 seconds, objective value 0.000000e+00
presolving:
(round 1, fast)       906 del vars, 1812 del conss, 0 add conss, 0 chg bounds, 878 chg sides, 0 chg coeffs, 0 upgd conss, 0 impls, 0 clqs
   (0.0s) running MILP presolver
   (0.0s) MILP presolver found nothing
(round 2, exhaustive) 906 del vars, 1812 del conss, 0 add conss, 0 chg bounds, 878 chg sides, 0 chg coeffs, 1777 upgd conss, 0 impls, 0 clqs
(round 3, exhaustive) 906 del vars, 1812 del conss, 0 add conss, 0 chg bounds, 878 chg sides, 0 chg coeffs, 1780 upgd conss, 0 impls, 0 clqs
   (0.0s) probing: 51/1340 (3.8%) - 0 fixings, 0 aggregations, 0 implications, 0 bound changes
   (0.0s) probing aborted: 50/50 successive totally useless probings
   (0.0s) symmetry computation started: requiring (bin +, int -, cont +), (fixed: bin -, int +, cont -)
   (0.0s) no symmetry present
presolving (4 rounds: 4 fast, 3 medium, 3 exhaustive):
 906 deleted vars, 1812 deleted constraints, 0 added constraints, 0 tightened bounds, 0 added holes, 878 changed sides, 0 changed coefficients
 0 implications, 0 cliques
presolved problem has 1340 variables (1340 bin, 0 int, 0 impl, 0 cont) and 1780 constraints
   1780 constraints of type <logicor>
transformed objective value is always integral (scale: 1)
Presolving Time: 0.04
transformed 1/2 original solutions to the transformed problem space

 time | node  | left  |LP iter|LP it/n|mem/heur|mdpt |vars |cons |rows |cuts |sepa|confs|strbr|  dualbound   | primalbound  |  gap   | compl. 
t 0.0s|     1 |     0 |     0 |     - | trivial|   0 |1340 |1780 |   0 |   0 |  0 |   0 |   0 | 1.149460e+05 | 7.710000e+02 |  Large | unknown
p 0.1s|     1 |     0 |     0 |     - |   locks|   0 |1340 |1780 |1780 |   0 |  0 |   0 |   0 | 1.149460e+05 | 8.715400e+04 |  31.89%| unknown
  0.1s|     1 |     0 |   539 |     - |    19M |   0 |1340 |1780 |1780 |   0 |  0 |   0 |   0 | 1.138035e+05 | 8.715400e+04 |  30.58%| unknown
  0.1s|     1 |     0 |   684 |     - |    20M |   0 |1340 |1780 |1794 |  14 |  1 |   0 |   0 | 1.134720e+05 | 8.715400e+04 |  30.20%| unknown
  0.1s|     1 |     0 |   838 |     - |    21M |   0 |1340 |1780 |1808 |  28 |  2 |   0 |   0 | 1.131050e+05 | 8.715400e+04 |  29.78%| unknown
  0.2s|     1 |     0 |   933 |     - |    21M |   0 |1340 |1780 |1820 |  40 |  3 |   0 |   0 | 1.128258e+05 | 8.715400e+04 |  29.46%| unknown
  0.2s|     1 |     0 |   967 |     - |    21M |   0 |1340 |1780 |1827 |  47 |  4 |   0 |   0 | 1.126918e+05 | 8.715400e+04 |  29.30%| unknown
  0.2s|     1 |     0 |  1141 |     - |    21M |   0 |1340 |1780 |1849 |  69 |  5 |   0 |   0 | 1.124006e+05 | 8.715400e+04 |  28.97%| unknown
  0.3s|     1 |     0 |  1259 |     - |    22M |   0 |1340 |1780 |1861 |  81 |  6 |   0 |   0 | 1.121623e+05 | 8.715400e+04 |  28.69%| unknown
  0.3s|     1 |     0 |  1443 |     - |    22M |   0 |1340 |1780 |1873 |  93 |  7 |   0 |   0 | 1.118574e+05 | 8.715400e+04 |  28.34%| unknown
  0.4s|     1 |     0 |  1583 |     - |    23M |   0 |1340 |1780 |1887 | 107 |  8 |   0 |   0 | 1.116828e+05 | 8.715400e+04 |  28.14%| unknown
  0.5s|     1 |     0 |  1689 |     - |    24M |   0 |1340 |1780 |1903 | 123 |  9 |   0 |   0 | 1.114951e+05 | 8.715400e+04 |  27.93%| unknown
  0.6s|     1 |     0 |  1846 |     - |    24M |   0 |1340 |1780 |1918 | 138 | 10 |   0 |   0 | 1.113267e+05 | 8.715400e+04 |  27.74%| unknown
  0.6s|     1 |     0 |  2045 |     - |    24M |   0 |1340 |1780 |1931 | 151 | 11 |   0 |   0 | 1.111010e+05 | 8.715400e+04 |  27.48%| unknown
  0.6s|     1 |     0 |  2156 |     - |    25M |   0 |1340 |1780 |1939 | 159 | 12 |   0 |   0 | 1.110359e+05 | 8.715400e+04 |  27.40%| unknown
 time | node  | left  |LP iter|LP it/n|mem/heur|mdpt |vars |cons |rows |cuts |sepa|confs|strbr|  dualbound   | primalbound  |  gap   | compl. 
  0.6s|     1 |     0 |  2280 |     - |    25M |   0 |1340 |1780 |1943 | 163 | 13 |   0 |   0 | 1.109943e+05 | 8.715400e+04 |  27.35%| unknown
  0.7s|     1 |     0 |  2435 |     - |    25M |   0 |1340 |1780 |1951 | 171 | 14 |   0 |   0 | 1.109162e+05 | 8.715400e+04 |  27.26%| unknown
  0.7s|     1 |     0 |  2563 |     - |    25M |   0 |1340 |1780 |1959 | 179 | 15 |   0 |   0 | 1.107954e+05 | 8.715400e+04 |  27.13%| unknown
  0.7s|     1 |     0 |  2708 |     - |    26M |   0 |1340 |1780 |1965 | 185 | 16 |   0 |   0 | 1.107411e+05 | 8.715400e+04 |  27.06%| unknown
  0.8s|     1 |     0 |  2899 |     - |    26M |   0 |1340 |1780 |1966 | 191 | 17 |   0 |   0 | 1.106246e+05 | 8.715400e+04 |  26.93%| unknown
  0.8s|     1 |     0 |  2966 |     - |    26M |   0 |1340 |1780 |1969 | 194 | 18 |   0 |   0 | 1.105881e+05 | 8.715400e+04 |  26.89%| unknown
  0.8s|     1 |     0 |  3197 |     - |    26M |   0 |1340 |1780 |1987 | 212 | 19 |   0 |   0 | 1.104242e+05 | 8.715400e+04 |  26.70%| unknown
  0.9s|     1 |     0 |  3318 |     - |    27M |   0 |1340 |1780 |2001 | 226 | 20 |   0 |   0 | 1.103552e+05 | 8.715400e+04 |  26.62%| unknown
  0.9s|     1 |     0 |  3367 |     - |    27M |   0 |1340 |1780 |2003 | 228 | 21 |   0 |   0 | 1.103415e+05 | 8.715400e+04 |  26.61%| unknown
d 2.6s|     1 |     0 | 21080 |     - |conflict|   0 |1340 |1880 |2003 |   0 | 23 | 100 |   0 | 1.103415e+05 | 9.373500e+04 |  17.72%| unknown
  2.6s|     1 |     0 | 21080 |     - |    28M |   0 |1340 |1880 |2003 | 228 | 23 | 100 |   0 | 1.103415e+05 | 9.373500e+04 |  17.72%| unknown
  2.7s|     1 |     0 | 21440 |     - |    28M |   0 |1340 |1880 |2026 | 251 | 24 | 100 |   0 | 1.093080e+05 | 9.373500e+04 |  16.61%| unknown
  2.7s|     1 |     0 | 21441 |     - |    28M |   0 |1340 |1880 |2027 | 252 | 25 | 100 |   0 | 1.093077e+05 | 9.373500e+04 |  16.61%| unknown
  4.0s|     1 |     2 | 21441 |     - |    28M |   0 |1340 |1880 |2027 | 252 | 25 | 100 |  40 | 1.076617e+05 | 9.373500e+04 |  14.86%| unknown
* 8.3s|    10 |     9 | 24361 |2292.6 |strongbr|   9 |1340 |1880 |1952 | 252 |  1 | 100 | 200 | 1.076617e+05 | 1.008230e+05 |   6.78%| unknown
 time | node  | left  |LP iter|LP it/n|mem/heur|mdpt |vars |cons |rows |cuts |sepa|confs|strbr|  dualbound   | primalbound  |  gap   | compl. 
 18.5s|   100 |    19 | 44973 | 416.6 |    28M |   9 |1340 |1986 |1952 | 252 |  0 | 206 |1041 | 1.053642e+05 | 1.008230e+05 |   4.50%|  24.50%
*18.8s|   110 |    19 | 46352 | 391.0 |    LP  |  10 |1340 |1986 |1963 | 263 |  4 | 206 |1064 | 1.053642e+05 | 1.009890e+05 |   4.33%|  25.11%
*20.4s|   173 |    18 | 57015 | 309.8 |    LP  |  10 |1340 |1999 |1962 | 280 |  3 | 219 |1152 | 1.043219e+05 | 1.010230e+05 |   3.27%|  43.77%
 20.9s|   200 |    15 | 60687 | 286.2 |    30M |  10 |1340 |2009 |1960 | 280 |  0 | 229 |1174 | 1.042754e+05 | 1.010230e+05 |   3.22%|  49.11%

SCIP Status        : problem is solved [optimal solution found]
Solving Time (sec) : 24.28
Solving Nodes      : 292
Primal Bound       : +1.01023000000000e+05 (9 solutions)
Dual Bound         : +1.01023000000000e+05
Gap                : 0.00 %
Solve Status: optimal
Solve Time: 24.28 seconds
